\ This file has been generated by DOcplex
\ ENCODING=ISO-8859-1
\Problem name: Orandom242_6.lp

Minimize
 obj: - 36.000011174825 x0 - 18.000005587412 x1 - 9.000002793706 x2
      - 28.000011174825 x3 - 14.000005587412 x4 - 7.000002793706 x5 + [
      16.000006385614 x0^2 + 16.000006385614 x0*x1 + 8.000003192807 x0*x2
      + 32.000012771228 x0*x3 + 16.000006385614 x0*x4 + 8.000003192807 x0*x5
      + 4.000001596404 x1^2 + 4.000001596404 x1*x2 + 16.000006385614 x1*x3
      + 8.000003192807 x1*x4 + 4.000001596404 x1*x5 + 1.000000399101 x2^2
      + 8.000003192807 x2*x3 + 4.000001596404 x2*x4 + 2.000000798202 x2*x5
      + 112.000006385614 x3^2 + 112.000006385614 x3*x4 + 56.000003192807 x3*x5
      + 28.000001596404 x4^2 + 28.000001596404 x4*x5 + 7.000000399101 x5^2 ]/2 +
      24.500009777972
Subject To

Bounds
 0 <= x0 <= 1
 0 <= x1 <= 1
 0 <= x2 <= 1
 0 <= x3 <= 1
 0 <= x4 <= 1
 0 <= x5 <= 1

Binaries
 x0 x1 x2 x3 x4 x5
End
